# Tell Atomify where initial camera position should be
#/camera position 40 40 40
#/camera viewcenter 10 10 10
# Information about atoms for coloring and bonds
#/atom 1 oxygen
#/atom 2 hydrogen
#/bond 1 2 1.8

units metal
boundary p p p

atom_style	molecular

read_data multiplewater.data

pair_style vashishta
pair_coeff	* * H2O.vashishta O H
neigh_modify every 1 delay 0 check yes
mass 1 15.9994
mass 2 1.00794

fix nve all nve
timestep 0.0005

run 1000